(set-logic QF_LIA)

;; Declare constants and functions
(declare-const atomicSymbol1 String)
(declare-const atomicWeight1 Int)
(declare-const isNobelGas1 Bool)
(declare-const isReactive1 Bool)

(declare-const atomicSymbol2 String)
(declare-const atomicWeight2 Int)
(declare-const isNobelGas2 Bool)
(declare-const isReactive2 Bool)

;; Add constraints and properties
(assert (distinct atomicSymbol1 atomicSymbol2)) ;; Atomic symbols should be distinct

(assert (distinct atomicWeight1 atomicWeight2)) ;; Atomic weights should be distinct
(assert (and (> atomicWeight1 0) (> atomicWeight2 0))) ;; Atomic weights should be greater than 0

(assert (=> isNobelGas1 (not isReactive1))) ;; Noble gases cannot be reactive
(assert (=> isNobelGas2 (not isReactive2))) ;; Noble gases cannot be reactive

;; Add additional constraints or properties as needed

;; Generate a model
(check-sat)
(get-model)
